50
300 300
1 239 14
2 239 73
3 232 380
4 232 317
5 225 567
6 224 894
7 217 434
8 211 454
9 200 585
10 199 205
11 199 979
12 198 844
13 196 830
14 196 502
15 176 173
16 165 275
17 163 591
18 162 258
19 159 959
20 157 877
21 155 717
22 154 903
23 152 651
24 148 408
25 146 864
26 146 412
27 146 839
28 144 424
29 141 976
30 140 508
31 132 61
32 130 344
33 127 883
34 127 76
35 122 242
36 122 136
37 94 603
38 92 774
39 90 428
40 80 63
41 73 983
42 67 769
43 63 673
44 59 668
45 54 446
46 51 632
47 43 357
48 37 823
49 35 715
50 34 159
